15,1	0,0	11,5	16,0	0,0	0,0	0,0	0,0	0,0	6,6
18,8	10,0	0,0	5,2	14,4	0,0	0,0	14,1	0,0	0,0
0,0	0,0	15,2	0,0	17,9	14,3	0,0	0,0	10,0	0,0
10,7	0,0	8,3	0,0	0,0	0,0	7,0	0,0	0,0	0,0
0,0	19,0	0,0	17,6	5,9	0,0	0,0	9,0	0,0	0,0
0,0	17,7	13,3	0,0	18,0	15,7	0,0	0,0	16,0	0,0
0,0	6,1	0,0	19,1	0,0	0,0	6,2	0,0	0,0	19,2
7,4	0,0	8,5	0,0	0,0	0,0	0,0	0,0	0,0	7,0
0,0	14,7	0,0	6,3	7,0	0,0	0,0	12,9	0,0	0,0
0,0	0,0	10,8	0,0	0,0	8,7	7,3	0,0	0,0	17,6
									
3,1	2,9	4,5	2,9	2,8	4,3	4,3	3,9	3,4	4,8
